c CNF
c from Selman's wff generator
p cnf 200  1600
1.0 -169 -59 0
1.0 -5 -49 0
1.0 -105 165 0
1.0 -190 -129 0
1.0 -136 170 0
1.0 118 75 0
1.0 144 -75 0
1.0 104 88 0
1.0 146 -7 0
1.0 55 -8 0
1.0 -173 -65 0
1.0 194 -95 0
1.0 -64 -50 0
1.0 125 13 0
1.0 87 -126 0
1.0 13 -96 0
1.0 -102 -78 0
1.0 -86 200 0
1.0 65 96 0
1.0 -190 114 0
1.0 164 155 0
1.0 -167 71 0
1.0 196 45 0
1.0 -108 -167 0
1.0 75 150 0
1.0 -66 -129 0
1.0 -148 197 0
1.0 183 -4 0
1.0 -38 -113 0
1.0 -69 158 0
1.0 -2 -112 0
1.0 78 -147 0
1.0 96 -164 0
1.0 -93 166 0
1.0 -162 -74 0
1.0 78 -126 0
1.0 38 -184 0
1.0 -141 -127 0
1.0 38 -123 0
1.0 70 -144 0
1.0 -107 -94 0
1.0 59 50 0
1.0 -123 141 0
1.0 -66 -44 0
1.0 27 -139 0
1.0 -66 -177 0
1.0 99 -159 0
1.0 -102 86 0
1.0 180 61 0
1.0 110 48 0
1.0 188 22 0
1.0 -65 149 0
1.0 87 -164 0
1.0 141 168 0
1.0 126 76 0
1.0 161 -141 0
1.0 -1 -45 0
1.0 -93 36 0
1.0 -58 -175 0
1.0 123 90 0
1.0 -54 -72 0
1.0 39 -19 0
1.0 -94 40 0
1.0 -180 -29 0
1.0 74 -173 0
1.0 9 32 0
1.0 -7 -181 0
1.0 -71 -200 0
1.0 -72 -101 0
1.0 120 150 0
1.0 190 -67 0
1.0 -95 -63 0
1.0 -35 39 0
1.0 -71 182 0
1.0 162 95 0
1.0 -95 -145 0
1.0 45 -73 0
1.0 -23 150 0
1.0 -17 -46 0
1.0 108 -130 0
1.0 -169 14 0
1.0 -195 -93 0
1.0 -188 123 0
1.0 67 -144 0
1.0 16 125 0
1.0 75 53 0
1.0 98 31 0
1.0 -160 -81 0
1.0 -95 133 0
1.0 26 84 0
1.0 6 34 0
1.0 -178 -145 0
1.0 70 -59 0
1.0 112 81 0
1.0 111 36 0
1.0 -117 163 0
1.0 -95 -166 0
1.0 -50 148 0
1.0 -182 -29 0
1.0 -173 111 0
1.0 -169 182 0
1.0 63 -21 0
1.0 56 -105 0
1.0 -67 -42 0
1.0 8 86 0
1.0 -33 13 0
1.0 -42 39 0
1.0 149 -124 0
1.0 -105 -42 0
1.0 -62 -88 0
1.0 192 183 0
1.0 25 75 0
1.0 160 -100 0
1.0 113 -1 0
1.0 -40 -179 0
1.0 -102 24 0
1.0 -66 -104 0
1.0 191 -113 0
1.0 96 -134 0
1.0 -9 -61 0
1.0 -161 40 0
1.0 40 168 0
1.0 146 195 0
1.0 19 173 0
1.0 76 28 0
1.0 141 54 0
1.0 -188 -90 0
1.0 -151 -107 0
1.0 -147 -125 0
1.0 92 11 0
1.0 6 133 0
1.0 -106 -140 0
1.0 168 -118 0
1.0 -172 -96 0
1.0 -186 -101 0
1.0 7 -120 0
1.0 -44 -30 0
1.0 -41 6 0
1.0 139 59 0
1.0 198 -178 0
1.0 95 72 0
1.0 168 -18 0
1.0 118 -181 0
1.0 100 -135 0
1.0 165 18 0
1.0 24 -53 0
1.0 111 -122 0
1.0 99 -30 0
1.0 101 147 0
1.0 164 85 0
1.0 65 -110 0
1.0 -45 84 0
1.0 102 -188 0
1.0 40 -66 0
1.0 187 92 0
1.0 121 133 0
1.0 79 138 0
1.0 -22 110 0
1.0 20 130 0
1.0 14 -159 0
1.0 147 -88 0
1.0 -153 -127 0
1.0 19 -196 0
1.0 -128 103 0
1.0 40 51 0
1.0 -161 -173 0
1.0 103 -198 0
1.0 157 -117 0
1.0 4 -72 0
1.0 199 26 0
1.0 -21 -120 0
1.0 -22 119 0
1.0 -169 -3 0
1.0 -176 70 0
1.0 -68 153 0
1.0 -69 26 0
1.0 98 17 0
1.0 -42 125 0
1.0 44 71 0
1.0 -189 -165 0
1.0 168 -49 0
1.0 119 -196 0
1.0 148 15 0
1.0 41 -137 0
1.0 153 -118 0
1.0 42 147 0
1.0 -17 67 0
1.0 -31 -78 0
1.0 -127 48 0
1.0 43 -161 0
1.0 176 39 0
1.0 -176 -96 0
1.0 -13 187 0
1.0 -134 -179 0
1.0 -45 91 0
1.0 169 117 0
1.0 -164 12 0
1.0 -173 -168 0
1.0 -7 -4 0
1.0 -100 -117 0
1.0 -104 33 0
1.0 -11 107 0
1.0 -198 -142 0
1.0 58 2 0
1.0 14 -199 0
1.0 -166 -26 0
1.0 -29 -96 0
1.0 13 -65 0
1.0 -98 -8 0
1.0 -115 -140 0
1.0 81 -93 0
1.0 -94 -138 0
1.0 136 -188 0
1.0 13 25 0
1.0 -120 -29 0
1.0 93 -10 0
1.0 18 -1 0
1.0 141 61 0
1.0 -153 121 0
1.0 -59 -118 0
1.0 106 -44 0
1.0 -69 -169 0
1.0 -197 129 0
1.0 139 -169 0
1.0 170 -177 0
1.0 -37 -131 0
1.0 52 -89 0
1.0 -7 -187 0
1.0 31 198 0
1.0 166 -188 0
1.0 116 8 0
1.0 176 -130 0
1.0 107 -97 0
1.0 -27 185 0
1.0 -74 167 0
1.0 -153 -90 0
1.0 87 21 0
1.0 9 -170 0
1.0 -177 -65 0
1.0 195 -187 0
1.0 83 -153 0
1.0 -138 175 0
1.0 141 174 0
1.0 63 -83 0
1.0 104 -160 0
1.0 129 -15 0
1.0 79 13 0
1.0 -200 156 0
1.0 -108 17 0
1.0 192 -179 0
1.0 152 148 0
1.0 -30 -103 0
1.0 62 -165 0
1.0 179 80 0
1.0 -93 154 0
1.0 -110 104 0
1.0 121 -166 0
1.0 144 119 0
1.0 -66 69 0
1.0 171 73 0
1.0 37 74 0
1.0 154 119 0
1.0 -73 -4 0
1.0 -108 112 0
1.0 -77 62 0
1.0 -181 182 0
1.0 -50 24 0
1.0 96 -171 0
1.0 -44 -75 0
1.0 194 22 0
1.0 25 -180 0
1.0 -92 -48 0
1.0 -110 99 0
1.0 -80 -102 0
1.0 -125 77 0
1.0 -47 3 0
1.0 78 101 0
1.0 -123 -130 0
1.0 109 186 0
1.0 -33 -39 0
1.0 137 155 0
1.0 -57 -167 0
1.0 43 97 0
1.0 -99 -154 0
1.0 55 -66 0
1.0 -195 -183 0
1.0 -168 3 0
1.0 -42 -72 0
1.0 -27 174 0
1.0 140 -142 0
1.0 38 -65 0
1.0 -19 50 0
1.0 115 -157 0
1.0 140 -174 0
1.0 -177 117 0
1.0 -188 50 0
1.0 24 -192 0
1.0 -134 -161 0
1.0 -25 15 0
1.0 -65 -17 0
1.0 174 -166 0
1.0 139 -102 0
1.0 -18 128 0
1.0 178 130 0
1.0 -122 118 0
1.0 78 -107 0
1.0 -122 -131 0
1.0 -148 -62 0
1.0 27 -54 0
1.0 156 -53 0
1.0 -180 -15 0
1.0 -145 200 0
1.0 -117 -121 0
1.0 28 -146 0
1.0 -76 42 0
1.0 -104 -100 0
1.0 154 -177 0
1.0 30 178 0
1.0 -192 -61 0
1.0 60 -124 0
1.0 -45 122 0
1.0 -67 -21 0
1.0 155 166 0
1.0 110 143 0
1.0 -39 117 0
1.0 198 125 0
1.0 -91 143 0
1.0 145 94 0
1.0 -64 -130 0
1.0 150 -76 0
1.0 -41 -51 0
1.0 193 167 0
1.0 83 152 0
1.0 -76 -53 0
1.0 -196 -56 0
1.0 149 38 0
1.0 -168 -138 0
1.0 14 181 0
1.0 32 182 0
1.0 149 41 0
1.0 -192 101 0
1.0 153 -50 0
1.0 105 12 0
1.0 50 93 0
1.0 -31 8 0
1.0 189 157 0
1.0 138 102 0
1.0 -143 -100 0
1.0 200 -28 0
1.0 -78 -34 0
1.0 45 188 0
1.0 -81 -102 0
1.0 -110 46 0
1.0 -2 -51 0
1.0 152 163 0
1.0 63 141 0
1.0 169 29 0
1.0 62 -116 0
1.0 104 -63 0
1.0 164 113 0
1.0 -159 -47 0
1.0 98 89 0
1.0 -52 -124 0
1.0 -64 171 0
1.0 200 191 0
1.0 -106 105 0
1.0 -167 -169 0
1.0 82 86 0
1.0 -133 173 0
1.0 61 -99 0
1.0 22 23 0
1.0 -194 -2 0
1.0 192 195 0
1.0 -99 22 0
1.0 -190 99 0
1.0 -185 -197 0
1.0 -169 110 0
1.0 -8 27 0
1.0 -50 169 0
1.0 171 -32 0
1.0 26 -89 0
1.0 -111 167 0
1.0 -65 183 0
1.0 -180 -81 0
1.0 -190 -115 0
1.0 142 -120 0
1.0 89 139 0
1.0 171 -69 0
1.0 -158 80 0
1.0 -47 -108 0
1.0 -91 138 0
1.0 18 128 0
1.0 43 -195 0
1.0 -115 29 0
1.0 168 -9 0
1.0 -78 81 0
1.0 -161 52 0
1.0 -160 70 0
1.0 -8 78 0
1.0 6 136 0
1.0 130 36 0
1.0 64 7 0
1.0 -16 107 0
1.0 -187 -101 0
1.0 -153 -30 0
1.0 -100 -72 0
1.0 -150 -79 0
1.0 14 -166 0
1.0 -1 35 0
1.0 42 34 0
1.0 -140 -63 0
1.0 164 -77 0
1.0 107 28 0
1.0 -100 188 0
1.0 66 47 0
1.0 12 6 0
1.0 41 12 0
1.0 -45 -172 0
1.0 -35 -87 0
1.0 -163 185 0
1.0 13 -141 0
1.0 -128 -189 0
1.0 36 164 0
1.0 170 97 0
1.0 108 -135 0
1.0 -106 -29 0
1.0 -116 47 0
1.0 -32 52 0
1.0 -192 -23 0
1.0 -12 116 0
1.0 79 185 0
1.0 81 -152 0
1.0 -87 -149 0
1.0 -178 76 0
1.0 -123 -71 0
1.0 -122 -119 0
1.0 142 -154 0
1.0 -69 -143 0
1.0 -127 94 0
1.0 -45 -53 0
1.0 -2 -135 0
1.0 11 -57 0
1.0 127 43 0
1.0 -162 -86 0
1.0 40 -192 0
1.0 135 57 0
1.0 150 -52 0
1.0 -104 -63 0
1.0 198 51 0
1.0 -107 156 0
1.0 199 -31 0
1.0 117 -43 0
1.0 34 -121 0
1.0 178 -120 0
1.0 -171 97 0
1.0 -159 -48 0
1.0 -98 64 0
1.0 19 108 0
1.0 -138 119 0
1.0 161 -40 0
1.0 -161 -73 0
1.0 193 -191 0
1.0 87 187 0
1.0 35 -17 0
1.0 -80 168 0
1.0 -75 175 0
1.0 93 91 0
1.0 131 74 0
1.0 147 -11 0
1.0 -1 94 0
1.0 -80 -139 0
1.0 156 135 0
1.0 -102 -183 0
1.0 -157 49 0
1.0 -139 53 0
1.0 -127 152 0
1.0 162 -189 0
1.0 82 -114 0
1.0 53 183 0
1.0 118 122 0
1.0 -105 178 0
1.0 -26 -183 0
1.0 35 -15 0
1.0 166 -194 0
1.0 183 46 0
1.0 160 141 0
1.0 124 101 0
1.0 23 -63 0
1.0 -41 54 0
1.0 36 99 0
1.0 113 65 0
1.0 59 67 0
1.0 -113 97 0
1.0 38 -131 0
1.0 32 102 0
1.0 -164 60 0
1.0 113 -169 0
1.0 68 -101 0
1.0 166 52 0
1.0 118 65 0
1.0 -162 -170 0
1.0 -101 -184 0
1.0 -86 159 0
1.0 18 -168 0
1.0 136 123 0
1.0 -24 -98 0
1.0 149 42 0
1.0 107 77 0
1.0 47 -198 0
1.0 182 24 0
1.0 -183 -66 0
1.0 -33 -168 0
1.0 -91 -9 0
1.0 -106 155 0
1.0 -197 -114 0
1.0 -191 17 0
1.0 -14 -36 0
1.0 60 64 0
1.0 130 -176 0
1.0 -144 173 0
1.0 -181 102 0
1.0 -57 49 0
1.0 -163 -62 0
1.0 -78 126 0
1.0 162 175 0
1.0 38 -148 0
1.0 -124 106 0
1.0 -78 59 0
1.0 -160 47 0
1.0 96 85 0
1.0 146 24 0
1.0 -150 -200 0
1.0 -174 2 0
1.0 -149 195 0
1.0 -100 -107 0
1.0 165 -39 0
1.0 -86 -179 0
1.0 64 10 0
1.0 34 -48 0
1.0 48 148 0
1.0 149 25 0
1.0 -20 -11 0
1.0 118 107 0
1.0 145 132 0
1.0 111 -148 0
1.0 -157 -49 0
1.0 -97 -17 0
1.0 -165 -66 0
1.0 91 -198 0
1.0 9 -180 0
1.0 87 127 0
1.0 58 -15 0
1.0 -162 -72 0
1.0 -120 126 0
1.0 -143 -82 0
1.0 147 126 0
1.0 -123 -31 0
1.0 11 178 0
1.0 -104 -65 0
1.0 -80 190 0
1.0 -61 -72 0
1.0 -198 -69 0
1.0 150 157 0
1.0 -83 68 0
1.0 -99 -82 0
1.0 59 -194 0
1.0 -58 -134 0
1.0 -123 -53 0
1.0 -125 -138 0
1.0 6 -162 0
1.0 119 110 0
1.0 178 186 0
1.0 -67 -142 0
1.0 135 -191 0
1.0 -124 10 0
1.0 63 -107 0
1.0 -44 195 0
1.0 157 173 0
1.0 82 56 0
1.0 -41 -80 0
1.0 22 -120 0
1.0 -111 119 0
1.0 128 -77 0
1.0 -184 111 0
1.0 106 87 0
1.0 -59 -81 0
1.0 -137 -11 0
1.0 91 -136 0
1.0 55 -116 0
1.0 -34 -16 0
1.0 -93 80 0
1.0 -191 129 0
1.0 -15 180 0
1.0 61 -94 0
1.0 -105 -15 0
1.0 -150 57 0
1.0 -172 174 0
1.0 -190 169 0
1.0 -48 117 0
1.0 -45 61 0
1.0 -40 92 0
1.0 185 147 0
1.0 161 -69 0
1.0 -126 190 0
1.0 -164 -84 0
1.0 52 67 0
1.0 -184 193 0
1.0 53 71 0
1.0 -162 -21 0
1.0 168 -87 0
1.0 156 119 0
1.0 -109 153 0
1.0 37 79 0
1.0 -146 -61 0
1.0 -53 -124 0
1.0 -194 -45 0
1.0 -65 188 0
1.0 -75 138 0
1.0 -56 -199 0
1.0 152 -88 0
1.0 167 -62 0
1.0 122 -62 0
1.0 185 -199 0
1.0 -43 -75 0
1.0 -62 -37 0
1.0 -174 100 0
1.0 -99 75 0
1.0 163 -29 0
1.0 90 113 0
1.0 -175 -83 0
1.0 -81 -62 0
1.0 136 -73 0
1.0 -109 170 0
1.0 -70 -98 0
1.0 173 -105 0
1.0 133 57 0
1.0 169 -105 0
1.0 -187 18 0
1.0 -80 41 0
1.0 113 20 0
1.0 -190 145 0
1.0 43 15 0
1.0 -119 46 0
1.0 102 14 0
1.0 119 -107 0
1.0 -125 116 0
1.0 156 162 0
1.0 182 -31 0
1.0 176 193 0
1.0 8 -56 0
1.0 -102 182 0
1.0 196 -52 0
1.0 159 87 0
1.0 3 -191 0
1.0 153 -104 0
1.0 -134 -116 0
1.0 -109 -133 0
1.0 189 159 0
1.0 141 -21 0
1.0 73 166 0
1.0 -52 69 0
1.0 60 199 0
1.0 -103 38 0
1.0 -154 48 0
1.0 -181 -72 0
1.0 30 -22 0
1.0 -43 -150 0
1.0 -115 -157 0
1.0 25 59 0
1.0 58 -32 0
1.0 -69 41 0
1.0 88 140 0
1.0 12 65 0
1.0 87 -94 0
1.0 44 -119 0
1.0 -75 190 0
1.0 -48 -144 0
1.0 175 80 0
1.0 120 59 0
1.0 199 152 0
1.0 16 -112 0
1.0 6 63 0
1.0 181 74 0
1.0 -63 -132 0
1.0 76 138 0
1.0 17 -79 0
1.0 -138 -160 0
1.0 -111 -20 0
1.0 131 -197 0
1.0 -59 58 0
1.0 132 -193 0
1.0 -124 -48 0
1.0 185 120 0
1.0 -199 -142 0
1.0 102 82 0
1.0 -101 18 0
1.0 -14 166 0
1.0 -23 -153 0
1.0 -145 4 0
1.0 51 53 0
1.0 172 -116 0
1.0 -58 -175 0
1.0 -56 -178 0
1.0 -196 109 0
1.0 74 156 0
1.0 108 192 0
1.0 -195 198 0
1.0 50 189 0
1.0 -104 -116 0
1.0 -90 -98 0
1.0 -76 91 0
1.0 199 91 0
1.0 -46 -161 0
1.0 153 -18 0
1.0 -15 128 0
1.0 116 70 0
1.0 -186 77 0
1.0 174 101 0
1.0 -192 -124 0
1.0 14 199 0
1.0 160 -30 0
1.0 48 18 0
1.0 -145 50 0
1.0 119 -11 0
1.0 -87 61 0
1.0 -161 -1 0
1.0 -124 -28 0
1.0 -27 -5 0
1.0 35 7 0
1.0 -24 -157 0
1.0 6 -69 0
1.0 80 -107 0
1.0 167 -8 0
1.0 8 -135 0
1.0 162 -22 0
1.0 -26 63 0
1.0 -69 74 0
1.0 30 85 0
1.0 -153 87 0
1.0 -194 -190 0
1.0 198 25 0
1.0 -159 -167 0
1.0 -189 4 0
1.0 67 -84 0
1.0 157 -16 0
1.0 100 87 0
1.0 173 -183 0
1.0 -173 -84 0
1.0 -108 13 0
1.0 -179 -111 0
1.0 -115 -96 0
1.0 -179 -56 0
1.0 -71 -143 0
1.0 29 144 0
1.0 -127 109 0
1.0 192 93 0
1.0 -105 43 0
1.0 153 52 0
1.0 33 49 0
1.0 -165 -162 0
1.0 -84 130 0
1.0 -153 138 0
1.0 105 -51 0
1.0 -119 -152 0
1.0 -117 186 0
1.0 -37 182 0
1.0 -30 -144 0
1.0 -105 -117 0
1.0 47 -38 0
1.0 175 167 0
1.0 18 -113 0
1.0 64 -178 0
1.0 164 -10 0
1.0 191 166 0
1.0 109 27 0
1.0 143 -117 0
1.0 -155 -16 0
1.0 183 48 0
1.0 -160 85 0
1.0 63 33 0
1.0 43 52 0
1.0 17 -94 0
1.0 -120 69 0
1.0 186 -141 0
1.0 157 -39 0
1.0 -87 77 0
1.0 161 76 0
1.0 109 -71 0
1.0 -123 -73 0
1.0 167 38 0
1.0 -106 4 0
1.0 145 -1 0
1.0 39 -99 0
1.0 -175 -180 0
1.0 -55 -39 0
1.0 -110 6 0
1.0 -79 97 0
1.0 -134 36 0
1.0 -40 -82 0
1.0 82 -160 0
1.0 59 124 0
1.0 -103 -16 0
1.0 -54 -126 0
1.0 -132 34 0
1.0 130 166 0
1.0 -1 188 0
1.0 69 -33 0
1.0 193 108 0
1.0 32 -116 0
1.0 131 -52 0
1.0 -178 -12 0
1.0 -46 -143 0
1.0 108 -175 0
1.0 -163 141 0
1.0 -173 182 0
1.0 -52 -15 0
1.0 99 -47 0
1.0 -139 -82 0
1.0 -30 -36 0
1.0 156 -170 0
1.0 8 -189 0
1.0 -138 -124 0
1.0 -105 -85 0
1.0 -100 -102 0
1.0 -148 21 0
1.0 103 -75 0
1.0 -111 31 0
1.0 -1 183 0
1.0 -171 -88 0
1.0 12 -77 0
1.0 162 8 0
1.0 109 195 0
1.0 -15 -7 0
1.0 81 -179 0
1.0 10 152 0
1.0 134 -52 0
1.0 140 -176 0
1.0 52 30 0
1.0 38 -138 0
1.0 -133 -3 0
1.0 146 -64 0
1.0 -112 10 0
1.0 -67 -144 0
1.0 163 -101 0
1.0 -114 -9 0
1.0 -75 3 0
1.0 -76 127 0
1.0 -130 92 0
1.0 -156 166 0
1.0 -176 133 0
1.0 -77 126 0
1.0 -27 -18 0
1.0 27 -166 0
1.0 -168 64 0
1.0 190 -59 0
1.0 -150 -198 0
1.0 -164 -192 0
1.0 -124 -101 0
1.0 26 141 0
1.0 -159 -16 0
1.0 182 -75 0
1.0 -139 -200 0
1.0 58 44 0
1.0 -42 40 0
1.0 -32 -85 0
1.0 -185 124 0
1.0 65 194 0
1.0 9 -56 0
1.0 -130 94 0
1.0 -94 -132 0
1.0 -175 43 0
1.0 82 -72 0
1.0 156 -164 0
1.0 -88 -23 0
1.0 -16 15 0
1.0 70 -183 0
1.0 77 -154 0
1.0 -85 64 0
1.0 106 -80 0
1.0 -151 -97 0
1.0 60 -169 0
1.0 191 198 0
1.0 12 75 0
1.0 58 -46 0
1.0 -200 148 0
1.0 -11 -25 0
1.0 -104 19 0
1.0 -116 -6 0
1.0 -174 -7 0
1.0 -4 23 0
1.0 97 -2 0
1.0 48 177 0
1.0 -124 -191 0
1.0 15 -75 0
1.0 -94 156 0
1.0 -161 -132 0
1.0 138 -107 0
1.0 -129 69 0
1.0 -71 -54 0
1.0 -31 -66 0
1.0 57 96 0
1.0 -171 141 0
1.0 97 161 0
1.0 -93 56 0
1.0 -163 90 0
1.0 -159 130 0
1.0 -183 94 0
1.0 -159 111 0
1.0 7 -57 0
1.0 198 75 0
1.0 -36 -114 0
1.0 -170 -144 0
1.0 34 -129 0
1.0 58 137 0
1.0 30 -167 0
1.0 78 23 0
1.0 80 89 0
1.0 -164 -102 0
1.0 -15 -123 0
1.0 -67 -84 0
1.0 12 136 0
1.0 -73 -114 0
1.0 81 -166 0
1.0 188 93 0
1.0 -181 -103 0
1.0 -4 114 0
1.0 37 -69 0
1.0 152 -117 0
1.0 53 -98 0
1.0 11 145 0
1.0 110 116 0
1.0 -8 -90 0
1.0 -192 -106 0
1.0 20 75 0
1.0 -144 16 0
1.0 132 -165 0
1.0 -62 93 0
1.0 -37 -135 0
1.0 50 12 0
1.0 102 5 0
1.0 110 -177 0
1.0 -52 -102 0
1.0 118 146 0
1.0 110 -150 0
1.0 42 143 0
1.0 77 -8 0
1.0 -19 -66 0
1.0 70 -28 0
1.0 -5 102 0
1.0 4 -94 0
1.0 -39 -142 0
1.0 -92 -4 0
1.0 146 163 0
1.0 -170 -36 0
1.0 -102 -131 0
1.0 -159 -122 0
1.0 23 58 0
1.0 -152 -70 0
1.0 -12 -117 0
1.0 120 56 0
1.0 19 -48 0
1.0 -83 -35 0
1.0 -165 -86 0
1.0 7 105 0
1.0 163 -104 0
1.0 -173 -2 0
1.0 119 40 0
1.0 -96 -123 0
1.0 -170 189 0
1.0 23 -79 0
1.0 -164 -192 0
1.0 -96 196 0
1.0 -99 55 0
1.0 57 -76 0
1.0 115 143 0
1.0 -65 115 0
1.0 103 -25 0
1.0 -103 124 0
1.0 115 22 0
1.0 17 -35 0
1.0 -90 -42 0
1.0 -117 43 0
1.0 185 133 0
1.0 47 -165 0
1.0 190 171 0
1.0 -95 185 0
1.0 7 194 0
1.0 -29 -90 0
1.0 131 127 0
1.0 170 -184 0
1.0 116 -121 0
1.0 -85 88 0
1.0 -58 -184 0
1.0 -169 -125 0
1.0 -119 -181 0
1.0 70 138 0
1.0 65 128 0
1.0 -112 128 0
1.0 -48 -192 0
1.0 79 -100 0
1.0 83 173 0
1.0 97 48 0
1.0 -28 25 0
1.0 163 26 0
1.0 154 147 0
1.0 74 -48 0
1.0 39 -81 0
1.0 180 60 0
1.0 -32 -141 0
1.0 -188 141 0
1.0 -165 -104 0
1.0 -129 12 0
1.0 -158 13 0
1.0 -61 39 0
1.0 120 5 0
1.0 -65 69 0
1.0 9 -77 0
1.0 17 -166 0
1.0 -70 -126 0
1.0 137 62 0
1.0 -75 -28 0
1.0 66 -77 0
1.0 81 -50 0
1.0 119 -46 0
1.0 -122 -64 0
1.0 -30 137 0
1.0 63 -29 0
1.0 90 -178 0
1.0 5 19 0
1.0 95 -133 0
1.0 -183 -139 0
1.0 185 -161 0
1.0 25 154 0
1.0 -91 -165 0
1.0 -193 50 0
1.0 27 46 0
1.0 -64 -146 0
1.0 -79 156 0
1.0 -95 53 0
1.0 -13 192 0
1.0 145 30 0
1.0 -194 -44 0
1.0 93 -140 0
1.0 -186 115 0
1.0 60 -51 0
1.0 -7 -141 0
1.0 -193 162 0
1.0 153 165 0
1.0 -195 -134 0
1.0 -177 120 0
1.0 -60 43 0
1.0 157 140 0
1.0 -191 -102 0
1.0 43 153 0
1.0 114 78 0
1.0 -43 84 0
1.0 17 -95 0
1.0 14 1 0
1.0 -43 -53 0
1.0 193 -12 0
1.0 -114 -170 0
1.0 -122 77 0
1.0 -154 -32 0
1.0 116 -64 0
1.0 -158 -59 0
1.0 59 -190 0
1.0 -43 162 0
1.0 174 116 0
1.0 85 198 0
1.0 74 35 0
1.0 67 -142 0
1.0 -6 -57 0
1.0 -115 -40 0
1.0 30 179 0
1.0 -141 -175 0
1.0 90 -126 0
1.0 -123 -45 0
1.0 80 -22 0
1.0 -164 -47 0
1.0 -104 42 0
1.0 -81 -66 0
1.0 -45 -65 0
1.0 40 -91 0
1.0 -16 -101 0
1.0 -146 84 0
1.0 -106 157 0
1.0 4 -98 0
1.0 -139 168 0
1.0 -34 116 0
1.0 181 113 0
1.0 -4 162 0
1.0 -62 53 0
1.0 137 90 0
1.0 -47 3 0
1.0 -101 148 0
1.0 116 -83 0
1.0 199 -190 0
1.0 -103 -89 0
1.0 -50 -149 0
1.0 -1 -81 0
1.0 -170 152 0
1.0 155 90 0
1.0 37 -26 0
1.0 -109 -154 0
1.0 143 128 0
1.0 -16 87 0
1.0 -35 74 0
1.0 -154 -97 0
1.0 -49 152 0
1.0 41 8 0
1.0 34 -153 0
1.0 106 131 0
1.0 58 136 0
1.0 -22 43 0
1.0 116 117 0
1.0 -13 64 0
1.0 15 134 0
1.0 -142 -122 0
1.0 -74 -162 0
1.0 93 -166 0
1.0 101 -120 0
1.0 162 178 0
1.0 69 -148 0
1.0 -141 151 0
1.0 15 -2 0
1.0 134 192 0
1.0 -109 188 0
1.0 -15 -137 0
1.0 160 -95 0
1.0 -72 -174 0
1.0 122 90 0
1.0 -40 18 0
1.0 -19 -154 0
1.0 146 198 0
1.0 -186 -35 0
1.0 -172 -100 0
1.0 195 30 0
1.0 3 -52 0
1.0 -141 -79 0
1.0 96 -124 0
1.0 77 25 0
1.0 22 113 0
1.0 148 -2 0
1.0 102 140 0
1.0 -169 -103 0
1.0 154 169 0
1.0 47 -82 0
1.0 5 111 0
1.0 -135 -123 0
1.0 -36 -178 0
1.0 -179 170 0
1.0 -109 152 0
1.0 54 138 0
1.0 -107 -145 0
1.0 26 178 0
1.0 -88 153 0
1.0 -75 -15 0
1.0 193 -141 0
1.0 110 193 0
1.0 144 -27 0
1.0 165 145 0
1.0 89 -107 0
1.0 -84 -121 0
1.0 -73 -58 0
1.0 73 170 0
1.0 110 148 0
1.0 141 88 0
1.0 115 133 0
1.0 -78 -87 0
1.0 194 175 0
1.0 95 -26 0
1.0 -83 -41 0
1.0 11 -170 0
1.0 -118 56 0
1.0 -144 178 0
1.0 -111 -24 0
1.0 -111 -86 0
1.0 -60 -33 0
1.0 -59 -29 0
1.0 70 35 0
1.0 4 -115 0
1.0 -171 -140 0
1.0 -117 121 0
1.0 145 108 0
1.0 -194 167 0
1.0 200 139 0
1.0 -168 129 0
1.0 -163 -94 0
1.0 9 -116 0
1.0 56 -66 0
1.0 -187 -66 0
1.0 -174 -14 0
1.0 181 -145 0
1.0 84 28 0
1.0 156 -37 0
1.0 131 -3 0
1.0 -119 -170 0
1.0 -35 13 0
1.0 -78 146 0
1.0 160 -139 0
1.0 -83 -38 0
1.0 65 159 0
1.0 -196 -103 0
1.0 105 20 0
1.0 -190 185 0
1.0 197 143 0
1.0 -89 198 0
1.0 -136 143 0
1.0 -180 109 0
1.0 68 200 0
1.0 -103 1 0
1.0 21 54 0
1.0 38 27 0
1.0 -169 81 0
1.0 -78 34 0
1.0 177 -94 0
1.0 3 16 0
1.0 -16 -65 0
1.0 -65 120 0
1.0 174 155 0
1.0 181 -130 0
1.0 10 154 0
1.0 -188 -113 0
1.0 -7 133 0
1.0 148 -122 0
1.0 186 9 0
1.0 -129 -6 0
1.0 -161 -30 0
1.0 -159 -90 0
1.0 97 56 0
1.0 156 64 0
1.0 185 -24 0
1.0 102 -200 0
1.0 81 141 0
1.0 76 -141 0
1.0 55 188 0
1.0 -78 -32 0
1.0 -88 25 0
1.0 -89 200 0
1.0 -24 -168 0
1.0 167 69 0
1.0 -10 74 0
1.0 -15 182 0
1.0 169 53 0
1.0 85 -6 0
1.0 30 -5 0
1.0 -5 146 0
1.0 -114 168 0
1.0 -37 187 0
1.0 -61 62 0
1.0 -44 120 0
1.0 172 25 0
1.0 30 80 0
1.0 -84 43 0
1.0 -189 -167 0
1.0 -135 -68 0
1.0 54 -110 0
1.0 -172 148 0
1.0 67 133 0
1.0 157 -85 0
1.0 164 123 0
1.0 -166 -21 0
1.0 187 -51 0
1.0 119 -37 0
1.0 147 -110 0
1.0 -57 -76 0
1.0 -8 -159 0
1.0 -43 58 0
1.0 180 -194 0
1.0 15 190 0
1.0 -41 -154 0
1.0 -191 -15 0
1.0 125 -18 0
1.0 -93 -187 0
1.0 145 -66 0
1.0 -124 -13 0
1.0 7 48 0
1.0 37 147 0
1.0 101 146 0
1.0 161 167 0
1.0 185 82 0
1.0 -68 169 0
1.0 -35 -41 0
1.0 54 193 0
1.0 41 109 0
1.0 -55 -104 0
1.0 50 191 0
1.0 158 -73 0
1.0 155 159 0
1.0 128 -196 0
1.0 -37 35 0
1.0 -27 180 0
1.0 -89 -32 0
1.0 135 -99 0
1.0 -89 143 0
1.0 -16 -88 0
1.0 -46 -6 0
1.0 -1 29 0
1.0 -63 55 0
1.0 -34 -78 0
1.0 109 100 0
1.0 198 163 0
1.0 -106 -22 0
1.0 109 -118 0
1.0 -124 -86 0
1.0 -114 -62 0
1.0 116 -89 0
1.0 166 22 0
1.0 -121 -137 0
1.0 99 145 0
1.0 -166 136 0
1.0 54 -17 0
1.0 -103 156 0
1.0 -17 -63 0
1.0 151 -57 0
1.0 -78 -154 0
1.0 -91 -109 0
1.0 -53 122 0
1.0 58 -119 0
1.0 136 121 0
1.0 76 190 0
1.0 53 45 0
1.0 -101 -107 0
1.0 -60 -111 0
1.0 -19 93 0
1.0 15 132 0
1.0 -50 -183 0
1.0 103 -73 0
1.0 62 -76 0
1.0 -120 96 0
1.0 -2 37 0
1.0 147 -174 0
1.0 66 150 0
1.0 -82 -126 0
1.0 -108 137 0
1.0 -9 139 0
1.0 -14 -60 0
1.0 -155 -101 0
1.0 138 150 0
1.0 123 -29 0
1.0 179 85 0
1.0 -11 -22 0
1.0 -158 -107 0
1.0 46 118 0
1.0 -178 -20 0
1.0 121 143 0
1.0 -92 106 0
1.0 135 -191 0
1.0 -76 72 0
1.0 93 164 0
1.0 70 -133 0
1.0 51 174 0
1.0 -165 -161 0
1.0 -49 -199 0
1.0 -13 89 0
1.0 1 -56 0
1.0 -142 -180 0
1.0 29 7 0
1.0 122 130 0
1.0 158 -165 0
1.0 -156 166 0
1.0 -164 -120 0
1.0 -8 174 0
1.0 -30 -79 0
1.0 -58 118 0
1.0 -124 196 0
1.0 -126 25 0
1.0 -190 -199 0
1.0 -164 -166 0
1.0 -86 143 0
1.0 -116 -97 0
1.0 -176 84 0
1.0 -2 -34 0
1.0 -30 -51 0
1.0 75 111 0
1.0 109 37 0
1.0 -3 158 0
1.0 -100 105 0
1.0 -1 -83 0
1.0 167 -78 0
1.0 112 -129 0
1.0 180 64 0
1.0 -174 133 0
1.0 -170 -128 0
1.0 86 -156 0
1.0 60 40 0
1.0 123 162 0
1.0 40 -45 0
1.0 174 -150 0
1.0 14 -188 0
1.0 120 125 0
1.0 53 -25 0
1.0 -180 120 0
1.0 160 123 0
1.0 -85 -135 0
1.0 180 -28 0
1.0 -177 -169 0
1.0 -156 113 0
1.0 -38 47 0
1.0 72 24 0
1.0 144 -150 0
1.0 -73 -189 0
1.0 124 -156 0
1.0 183 -158 0
1.0 -126 162 0
1.0 -74 -126 0
1.0 173 120 0
1.0 144 29 0
1.0 -178 185 0
1.0 174 -7 0
1.0 -89 1 0
1.0 -56 70 0
1.0 19 -53 0
1.0 -9 -3 0
1.0 4 161 0
1.0 56 159 0
1.0 148 -59 0
1.0 66 -112 0
1.0 -112 -161 0
1.0 -31 171 0
1.0 -23 76 0
1.0 -79 111 0
1.0 -72 -32 0
1.0 -191 -123 0
1.0 182 60 0
1.0 110 200 0
1.0 -200 -172 0
1.0 -157 150 0
1.0 -144 24 0
1.0 -184 193 0
1.0 106 52 0
1.0 19 144 0
1.0 4 -57 0
1.0 -57 98 0
1.0 69 84 0
1.0 34 -17 0
1.0 41 168 0
1.0 160 157 0
1.0 9 44 0
1.0 187 -104 0
1.0 -160 121 0
1.0 18 86 0
1.0 -169 97 0
1.0 -114 -169 0
1.0 -136 10 0
1.0 -166 -15 0
1.0 58 55 0
1.0 159 -29 0
1.0 -149 -137 0
1.0 22 -6 0
1.0 -102 164 0
1.0 -132 171 0
1.0 -180 -146 0
1.0 -160 123 0
1.0 178 -120 0
1.0 149 97 0
1.0 33 189 0
1.0 195 116 0
1.0 -80 36 0
1.0 6 -80 0
1.0 -25 -41 0
1.0 163 -50 0
1.0 170 -65 0
1.0 161 -130 0
1.0 118 -78 0
1.0 193 92 0
1.0 127 -119 0
1.0 -198 162 0
1.0 2 -48 0
1.0 -97 9 0
1.0 -73 181 0
1.0 111 198 0
1.0 75 -140 0
1.0 148 140 0
1.0 23 -24 0
1.0 -141 -87 0
1.0 93 -151 0
1.0 -56 150 0
1.0 -133 -9 0
1.0 36 -175 0
1.0 115 72 0
1.0 -11 168 0
1.0 191 -193 0
1.0 -79 -4 0
1.0 155 4 0
1.0 153 47 0
1.0 55 193 0
1.0 -167 19 0
1.0 -91 -75 0
1.0 -42 71 0
1.0 -63 -153 0
1.0 -156 -84 0
1.0 -87 185 0
1.0 -32 167 0
1.0 -159 -140 0
1.0 159 176 0
1.0 -51 149 0
1.0 -20 85 0
1.0 37 -88 0
1.0 -172 136 0
1.0 121 -24 0
1.0 190 -23 0
1.0 162 -15 0
1.0 -191 80 0
1.0 -29 120 0
1.0 -5 57 0
1.0 145 -154 0
1.0 -90 138 0
1.0 -161 -71 0
1.0 93 2 0
1.0 -17 171 0
1.0 51 145 0
1.0 -65 181 0
1.0 -37 -57 0
1.0 11 146 0
1.0 -83 70 0
1.0 -140 73 0
1.0 74 92 0
1.0 63 -61 0
1.0 -6 145 0
1.0 -125 -118 0
1.0 -174 -51 0
1.0 196 40 0
1.0 -110 194 0
1.0 67 -116 0
1.0 8 167 0
1.0 -28 128 0
1.0 -73 -175 0
1.0 -92 42 0
1.0 92 102 0
1.0 -142 133 0
1.0 127 -87 0
1.0 -3 180 0
1.0 146 -165 0
1.0 92 -63 0
1.0 -37 -108 0
1.0 -150 121 0
1.0 -23 -42 0
1.0 174 94 0
1.0 181 -114 0
1.0 -94 26 0
1.0 191 72 0
1.0 135 -18 0
1.0 126 9 0
1.0 -129 -93 0
1.0 -134 -46 0
1.0 140 -129 0
1.0 -43 -100 0
1.0 -126 -95 0
1.0 -167 -186 0
1.0 4 -45 0
1.0 53 -172 0
1.0 -65 -121 0
1.0 -167 -47 0
1.0 176 112 0
1.0 -12 -129 0
1.0 23 -127 0
1.0 113 -50 0
1.0 95 -163 0
1.0 -135 -48 0
1.0 -169 -60 0
1.0 106 102 0
1.0 14 66 0
1.0 -194 51 0
1.0 177 14 0
1.0 64 -96 0
1.0 -59 -50 0
1.0 -97 32 0
1.0 -91 -189 0
1.0 91 -39 0
1.0 -105 174 0
1.0 -24 91 0
1.0 105 -119 0
1.0 -14 95 0
1.0 144 30 0
1.0 -61 -57 0
1.0 -45 -105 0
1.0 144 23 0
1.0 -197 169 0
1.0 60 -58 0
1.0 -177 -111 0
1.0 5 -56 0
1.0 -85 -127 0
1.0 184 95 0
1.0 -199 -43 0
1.0 -65 3 0
1.0 171 135 0
1.0 -193 -102 0
1.0 -13 125 0
1.0 -181 21 0
1.0 148 -154 0
1.0 -48 107 0
1.0 -149 122 0
1.0 125 179 0
1.0 -114 -157 0
1.0 59 119 0
1.0 43 34 0
1.0 55 52 0
1.0 -6 98 0
1.0 4 -91 0
